objective value:                                   -7
t_n_12                                              1 	(obj:-1)
t_n_201                                             1 	(obj:-1)
t_n_531                                             1 	(obj:-1)
t_n_539                                             1 	(obj:-1)
t_n_865                                             1 	(obj:-1)
t_n_884                                             1 	(obj:-1)
t_n_947                                             1 	(obj:-1)
